s td 12 19 30
b 1 1 2 3 4 8 9 10 11 12 13 14 17 18 21 23 26 27 29 30
b 2 1 2 3 5 8 9 10 11 12 13 14 17 18 21 23 26 27 29 30
b 3 1 2 3 5 8 9 10 11 12 13 14 17 18 21 23 26 28 29 30
b 4 1 2 3 5 6 9 10 12 13 14 18 21 23 26 28 29
b 5 2 3 5 6 9 10 12 14 18 21 22 23 26 28 29
b 6 2 5 6 9 10 12 15 18 21 22 28 29
b 7 1 2 4 8 11 12 13 14 18 21 23 24 26 29
b 8 2 7 8 11 12 14 21 23 24 26
b 9 1 3 8 12 13 14 16 17 23 27 29
b 10 1 2 3 4 8 9 10 11 12 13 14 17 18 20 21 23 27 29 30
b 11 1 3 4 9 10 11 12 13 14 17 18 19 20 21 23 27 29 30
b 12 4 10 12 13 17 19 20 25 30
1 2
1 7
1 9
1 10
2 3
3 4
4 5
5 6
7 8
10 11
11 12
